benchmarks_vrp/att48_3.vrp
NAME: att48_3
TYPE: CVRP
COMMENT: (Rinaldi,Yarrow/Araque) - Cluster Nr.3
DIMENSION: 3
CAPACITY: 15
EDGE_WEIGHT_TYPE: ATT
NODE_COORD_TYPE: TWOD_COORDS
NODE_COORD_SECTION: 
2 6823 4674
1 5887 3796
3 5776 4498
DEPOT_SECTION: 
2
-1
DEMAND_SECTION: 
2 0
1 1
3 1
EOF
