benchmarks_vrp/att48_3.tour
NAME: att48_3 solution
TYPE: TOUR
TOUR_SECTION:
2 1 3 -1
-1
EOF